p edge 100 990
e 1 6
e 1 7
e 1 20
e 1 21
e 1 27
e 1 30
e 1 33
e 1 34
e 1 43
e 1 44
e 1 46
e 1 49
e 1 58
e 1 65
e 1 68
e 1 73
e 1 84
e 1 99
e 1 100
e 2 9
e 2 11
e 2 17
e 2 18
e 2 22
e 2 28
e 2 33
e 2 40
e 2 42
e 2 57
e 2 60
e 2 70
e 2 75
e 2 76
e 2 86
e 2 87
e 2 91
e 2 93
e 2 98
e 3 10
e 3 14
e 3 16
e 3 17
e 3 19
e 3 22
e 3 38
e 3 46
e 3 56
e 3 58
e 3 73
e 3 81
e 3 89
e 3 95
e 3 100
e 4 7
e 4 9
e 4 20
e 4 21
e 4 28
e 4 33
e 4 36
e 4 42
e 4 46
e 4 47
e 4 53
e 4 55
e 4 62
e 4 65
e 4 70
e 4 82
e 4 83
e 4 86
e 4 89
e 4 92
e 4 99
e 5 8
e 5 11
e 5 15
e 5 19
e 5 22
e 5 26
e 5 37
e 5 42
e 5 47
e 5 51
e 5 53
e 5 55
e 5 60
e 5 64
e 5 65
e 5 76
e 5 77
e 5 93
e 5 95
e 5 99
e 6 7
e 6 20
e 6 24
e 6 25
e 6 26
e 6 42
e 6 48
e 6 49
e 6 50
e 6 55
e 6 57
e 6 59
e 6 60
e 6 62
e 6 64
e 6 70
e 6 84
e 6 85
e 6 87
e 6 89
e 6 92
e 6 96
e 7 10
e 7 16
e 7 23
e 7 24
e 7 27
e 7 37
e 7 41
e 7 42
e 7 50
e 7 57
e 7 58
e 7 59
e 7 61
e 7 64
e 7 73
e 7 74
e 7 90
e 7 93
e 7 100
e 8 10
e 8 12
e 8 19
e 8 21
e 8 24
e 8 25
e 8 31
e 8 33
e 8 41
e 8 44
e 8 47
e 8 50
e 8 68
e 8 70
e 8 73
e 8 81
e 8 88
e 9 12
e 9 32
e 9 37
e 9 38
e 9 43
e 9 44
e 9 50
e 9 52
e 9 55
e 9 62
e 9 63
e 9 70
e 9 73
e 9 76
e 9 77
e 9 97
e 10 22
e 10 23
e 10 26
e 10 32
e 10 46
e 10 70
e 10 74
e 10 77
e 10 78
e 10 80
e 10 94
e 10 96
e 10 97
e 11 14
e 11 18
e 11 30
e 11 45
e 11 53
e 11 54
e 11 56
e 11 68
e 11 69
e 11 70
e 11 71
e 11 73
e 11 77
e 11 89
e 12 18
e 12 21
e 12 26
e 12 29
e 12 38
e 12 43
e 12 47
e 12 57
e 12 66
e 12 68
e 12 76
e 12 85
e 12 89
e 12 90
e 12 97
e 13 15
e 13 20
e 13 25
e 13 26
e 13 30
e 13 37
e 13 38
e 13 39
e 13 42
e 13 58
e 13 65
e 13 66
e 13 72
e 13 82
e 13 85
e 13 90
e 13 94
e 13 97
e 13 100
e 14 16
e 14 20
e 14 22
e 14 23
e 14 24
e 14 25
e 14 31
e 14 40
e 14 42
e 14 43
e 14 48
e 14 49
e 14 60
e 14 63
e 14 64
e 14 75
e 14 86
e 14 89
e 14 91
e 14 92
e 15 20
e 15 22
e 15 29
e 15 33
e 15 37
e 15 45
e 15 61
e 15 66
e 15 70
e 15 76
e 15 78
e 15 84
e 15 85
e 15 86
e 15 89
e 15 93
e 15 95
e 16 29
e 16 37
e 16 49
e 16 53
e 16 54
e 16 67
e 16 74
e 16 82
e 16 84
e 16 86
e 16 87
e 17 28
e 17 40
e 17 43
e 17 44
e 17 55
e 17 58
e 17 59
e 17 60
e 17 61
e 17 65
e 17 85
e 17 86
e 17 91
e 17 92
e 17 99
e 17 100
e 18 20
e 18 23
e 18 38
e 18 40
e 18 48
e 18 49
e 18 51
e 18 53
e 18 57
e 18 63
e 18 76
e 18 77
e 18 79
e 18 81
e 18 86
e 18 91
e 19 22
e 19 24
e 19 30
e 19 32
e 19 40
e 19 51
e 19 52
e 19 67
e 19 75
e 19 77
e 19 93
e 19 94
e 19 95
e 19 99
e 20 32
e 20 33
e 20 36
e 20 42
e 20 53
e 20 57
e 20 66
e 20 68
e 20 70
e 20 78
e 20 90
e 20 93
e 20 97
e 20 98
e 21 23
e 21 31
e 21 32
e 21 36
e 21 38
e 21 40
e 21 41
e 21 50
e 21 51
e 21 52
e 21 62
e 21 66
e 21 70
e 21 78
e 22 24
e 22 29
e 22 38
e 22 46
e 22 50
e 22 51
e 22 53
e 22 57
e 22 60
e 22 67
e 22 71
e 22 72
e 22 78
e 22 85
e 22 86
e 22 87
e 22 88
e 22 90
e 22 96
e 22 97
e 23 26
e 23 27
e 23 30
e 23 31
e 23 37
e 23 38
e 23 42
e 23 45
e 23 47
e 23 56
e 23 59
e 23 64
e 23 70
e 23 82
e 23 83
e 23 84
e 23 90
e 23 91
e 23 98
e 24 25
e 24 31
e 24 32
e 24 39
e 24 44
e 24 48
e 24 53
e 24 54
e 24 58
e 24 59
e 24 64
e 24 67
e 24 69
e 24 70
e 24 77
e 24 91
e 24 92
e 24 97
e 25 37
e 25 42
e 25 48
e 25 62
e 25 68
e 25 75
e 25 83
e 25 90
e 25 91
e 25 95
e 25 98
e 26 28
e 26 39
e 26 46
e 26 48
e 26 50
e 26 54
e 26 68
e 26 92
e 26 98
e 26 99
e 27 35
e 27 38
e 27 52
e 27 53
e 27 54
e 27 57
e 27 59
e 27 74
e 27 77
e 27 81
e 28 31
e 28 38
e 28 44
e 28 57
e 28 66
e 28 68
e 28 72
e 28 82
e 28 86
e 28 92
e 28 93
e 28 94
e 28 96
e 28 97
e 29 44
e 29 50
e 29 52
e 29 57
e 29 65
e 29 76
e 29 78
e 29 79
e 29 86
e 29 100
e 30 34
e 30 37
e 30 38
e 30 39
e 30 48
e 30 49
e 30 65
e 30 74
e 30 78
e 30 81
e 30 86
e 30 99
e 31 33
e 31 35
e 31 39
e 31 46
e 31 49
e 31 53
e 31 54
e 31 56
e 31 60
e 31 61
e 31 63
e 31 66
e 31 68
e 31 69
e 31 71
e 31 79
e 31 83
e 31 86
e 31 88
e 31 93
e 31 94
e 31 98
e 32 34
e 32 41
e 32 43
e 32 52
e 32 60
e 32 61
e 32 65
e 32 68
e 32 74
e 32 82
e 32 85
e 32 91
e 32 96
e 32 98
e 32 100
e 33 39
e 33 41
e 33 44
e 33 51
e 33 54
e 33 56
e 33 59
e 33 61
e 33 73
e 33 78
e 33 91
e 33 93
e 34 45
e 34 47
e 34 50
e 34 58
e 34 67
e 34 81
e 34 83
e 34 88
e 34 89
e 35 42
e 35 56
e 35 60
e 35 61
e 35 65
e 35 72
e 35 74
e 35 77
e 35 78
e 35 80
e 35 84
e 35 92
e 35 95
e 35 96
e 35 97
e 35 99
e 36 41
e 36 46
e 36 48
e 36 51
e 36 53
e 36 55
e 36 56
e 36 61
e 36 70
e 36 71
e 36 72
e 36 75
e 36 83
e 36 84
e 36 85
e 36 87
e 37 39
e 37 45
e 37 47
e 37 48
e 37 58
e 37 62
e 37 72
e 37 78
e 37 79
e 37 80
e 37 87
e 37 89
e 37 91
e 37 97
e 37 98
e 38 49
e 38 50
e 38 51
e 38 52
e 38 53
e 38 58
e 38 61
e 38 63
e 38 66
e 38 70
e 38 73
e 38 75
e 38 76
e 38 79
e 38 80
e 38 82
e 38 83
e 38 85
e 38 87
e 38 91
e 38 95
e 38 96
e 39 46
e 39 50
e 39 54
e 39 55
e 39 56
e 39 59
e 39 60
e 39 61
e 39 68
e 39 74
e 39 77
e 39 82
e 39 84
e 39 88
e 39 92
e 39 94
e 39 95
e 39 97
e 40 42
e 40 44
e 40 51
e 40 62
e 40 66
e 40 70
e 40 77
e 40 80
e 40 84
e 40 86
e 40 88
e 40 93
e 40 96
e 41 45
e 41 46
e 41 55
e 41 59
e 41 69
e 41 78
e 41 93
e 41 100
e 42 52
e 42 55
e 42 60
e 42 61
e 42 62
e 42 75
e 42 79
e 42 93
e 42 94
e 43 45
e 43 49
e 43 50
e 43 56
e 43 66
e 43 75
e 43 83
e 43 86
e 43 94
e 44 45
e 44 47
e 44 56
e 44 59
e 44 64
e 44 70
e 44 73
e 44 78
e 44 79
e 44 84
e 44 87
e 44 97
e 44 99
e 45 49
e 45 59
e 45 60
e 45 66
e 45 68
e 45 71
e 45 72
e 45 76
e 45 89
e 45 100
e 46 52
e 46 53
e 46 62
e 46 63
e 46 65
e 46 80
e 46 85
e 46 94
e 46 95
e 47 52
e 47 53
e 47 54
e 47 58
e 47 59
e 47 71
e 47 74
e 47 77
e 47 89
e 47 95
e 47 97
e 47 100
e 48 49
e 48 50
e 48 54
e 48 76
e 48 82
e 48 85
e 48 89
e 48 90
e 48 99
e 49 63
e 49 67
e 49 69
e 49 70
e 49 71
e 49 73
e 49 74
e 49 77
e 49 78
e 49 84
e 49 88
e 49 89
e 49 98
e 49 100
e 50 56
e 50 59
e 50 61
e 50 63
e 50 65
e 50 66
e 50 67
e 50 68
e 50 78
e 50 85
e 50 91
e 50 97
e 50 100
e 51 54
e 51 55
e 51 58
e 51 60
e 51 69
e 51 76
e 51 77
e 51 85
e 51 94
e 52 54
e 52 55
e 52 56
e 52 59
e 52 63
e 52 68
e 52 78
e 52 80
e 52 81
e 52 86
e 52 88
e 52 92
e 52 99
e 53 58
e 53 61
e 53 67
e 53 69
e 53 73
e 53 74
e 53 77
e 53 84
e 53 86
e 53 89
e 53 90
e 53 91
e 53 94
e 53 100
e 54 64
e 54 66
e 54 70
e 54 73
e 54 82
e 54 83
e 54 87
e 54 100
e 55 58
e 55 66
e 55 70
e 55 73
e 55 75
e 55 76
e 55 78
e 55 83
e 55 93
e 55 96
e 56 67
e 56 68
e 56 70
e 56 73
e 56 75
e 56 76
e 56 77
e 56 84
e 56 90
e 57 67
e 57 68
e 57 76
e 57 77
e 57 81
e 57 86
e 57 89
e 57 90
e 57 91
e 57 92
e 57 95
e 58 64
e 58 76
e 58 77
e 58 82
e 58 89
e 58 93
e 58 96
e 59 67
e 59 82
e 59 83
e 59 95
e 59 96
e 59 98
e 60 61
e 60 63
e 60 65
e 60 71
e 60 72
e 60 84
e 60 93
e 60 98
e 60 100
e 61 62
e 61 65
e 61 79
e 61 85
e 61 87
e 61 93
e 61 95
e 62 71
e 62 89
e 62 95
e 62 96
e 62 99
e 63 73
e 63 77
e 63 80
e 63 88
e 63 89
e 63 93
e 63 94
e 63 100
e 64 65
e 64 66
e 64 67
e 64 81
e 64 82
e 64 85
e 64 87
e 64 95
e 64 98
e 64 100
e 65 79
e 65 81
e 65 84
e 65 85
e 65 86
e 65 87
e 65 92
e 65 95
e 66 73
e 66 81
e 66 90
e 66 100
e 67 75
e 67 76
e 67 82
e 67 83
e 67 85
e 67 92
e 67 96
e 68 69
e 68 70
e 68 74
e 68 75
e 68 83
e 68 98
e 69 73
e 69 78
e 69 82
e 69 84
e 69 92
e 69 95
e 70 75
e 70 77
e 70 78
e 70 81
e 70 91
e 70 95
e 70 98
e 71 88
e 71 93
e 71 96
e 71 99
e 72 74
e 72 76
e 72 85
e 72 94
e 72 99
e 72 100
e 73 76
e 73 87
e 73 93
e 73 95
e 74 80
e 74 83
e 74 84
e 74 87
e 74 93
e 74 99
e 75 85
e 75 88
e 75 90
e 75 91
e 75 94
e 75 100
e 76 78
e 76 79
e 76 82
e 76 90
e 76 96
e 77 80
e 77 83
e 77 86
e 77 89
e 77 92
e 78 80
e 78 84
e 78 87
e 78 90
e 78 92
e 78 93
e 78 95
e 78 97
e 78 100
e 79 82
e 79 83
e 79 89
e 79 90
e 79 93
e 79 96
e 79 100
e 80 81
e 80 89
e 80 90
e 80 96
e 81 98
e 81 99
e 82 88
e 82 99
e 83 86
e 83 88
e 83 95
e 84 94
e 84 95
e 86 91
e 86 95
e 87 88
e 87 98
e 88 94
e 88 96
e 89 93
e 89 94
e 89 100
e 90 92
e 90 95
e 90 96
e 90 97
e 91 95
e 91 97
e 92 93
e 92 94
e 93 97
e 93 98
e 94 96
e 94 98
e 97 99
